125
0 74 77 69 14 95 25 110 78 65 
23 5 59 89 28 75 114 62 84 17 
87 116 9 29 102 50 38 117 20 35 
52 123 80 85 60 2 71 86 107 104 
16 53 93 94 99 98 64 18 90 37 
8 40 105 54 118 45 21 81 106 120 
67 46 36 57 115 12 3 82 124 4 
19 70 44 101 49 91 119 47 113 92 
48 61 33 58 108 73 43 10 76 122 
31 63 22 97 7 34 41 51 39 79 
88 111 26 121 96 30 11 13 56 103 
42 27 109 6 72 68 55 66 112 15 
32 1 100 24 83 
